seed= 2052018 ;
N= 270 ;
M= 3 ;
F= 3 ;
K= 4 ;
T= 84 ;

p=[ 4 4 4 4 4 4 4 4 4 4 4 4 4 4 4 4 4 4 4 4 4 4 4 4 4 4 4 4 4 4 4 4 4 4 4 4 4 4 4 4 4 4 4 4 4 4 4 4 4 4 4 4 4 4 4 4 4 4 4 4 4 4 4 4 4 4 4 4 4 4 4 4 4 4 4 4 4 4 4 4 4 4 4 4 4 4 4 4 4 4 2 2 2 2 2 2 2 2 2 2 2 2 2 2 2 2 2 2 2 2 2 2 2 2 2 2 2 2 2 2 2 2 2 2 2 2 2 2 2 2 2 2 2 2 2 2 2 2 2 2 2 2 2 2 2 2 2 2 2 2 2 2 2 2 2 2 2 2 2 2 2 2 2 2 2 2 2 2 2 2 2 2 2 2 2 2 2 2 2 2 2 2 2 2 2 2 2 2 2 2 2 2 2 2 2 2 2 2 2 2 2 2 2 2 2 2 2 2 2 2 2 2 2 2 2 2 2 2 2 2 2 2 2 2 2 2 2 2 2 2 2 2 2 2 2 2 2 2 2 2 2 2 2 2 2 2 2 2 2 2 2 2 2 2 2 2 2 2 2 2 2 2 2 2 2 2 2 2 2 2 ];
r=[ 0 0 0 0 0 0 0 0 0 0 0 0 0 0 0 0 0 0 0 0 0 0 0 0 0 0 0 0 0 0 0 0 0 0 0 0 0 0 0 0 0 0 0 0 0 0 0 0 0 0 0 0 0 0 0 0 0 0 0 0 0 0 0 0 0 0 0 0 0 0 0 0 0 0 0 0 0 0 0 0 0 0 0 0 0 0 0 0 0 0 0 0 0 0 0 0 0 0 0 0 0 0 0 0 0 0 0 0 0 0 0 0 0 0 0 0 0 0 0 0 0 0 0 0 0 0 0 0 0 0 0 0 0 0 0 0 0 0 0 0 0 0 0 0 0 0 0 0 0 0 0 0 0 0 0 0 0 0 0 0 0 0 0 0 0 0 0 0 0 0 0 0 0 0 0 0 0 0 0 0 0 0 0 0 0 0 0 0 0 0 0 0 0 0 0 0 0 0 0 0 0 0 0 0 0 0 0 0 0 0 0 0 0 0 0 0 0 0 0 0 0 0 0 0 0 0 0 0 0 0 0 0 0 0 0 0 0 0 0 0 0 0 0 0 0 0 0 0 0 0 0 0 0 0 0 0 0 0 0 0 0 0 0 0 0 0 0 0 0 0 ];
d=[ 47 67 41 49 86 10 15 9 78 37 43 73 22 45 11 33 79 84 24 19 34 1 27 21 10 90 32 12 10 66 51 49 45 38 88 82 4 43 81 77 56 26 45 54 0 73 89 84 77 82 63 72 79 6 41 34 71 60 53 26 45 16 32 51 78 35 70 55 89 78 26 8 5 71 60 54 34 27 3 31 72 11 62 43 86 61 47 76 14 55 80 1 78 70 35 72 77 74 20 33 41 4 18 55 15 26 50 23 12 56 13 44 77 4 41 75 38 39 57 65 30 19 35 56 77 4 34 35 57 2 62 47 8 71 37 53 19 2 30 18 76 53 17 44 27 85 41 35 77 11 45 4 46 51 59 58 12 78 21 21 22 19 48 62 45 84 87 7 31 12 52 73 8 0 12 28 11 82 8 64 86 57 9 72 70 13 0 60 21 3 83 45 80 70 26 27 34 11 50 85 50 8 58 54 50 46 79 81 56 26 59 22 25 48 23 9 29 88 75 20 1 22 34 87 60 81 13 82 31 22 19 26 16 2 75 19 82 0 15 35 68 35 63 52 48 66 84 70 21 45 48 67 83 19 26 81 69 73 58 0 2 86 75 5 20 15 60 6 72 20 ];
s=[ 1 1 1 1 1 1 1 1 1 1 1 1 1 1 1 1 1 1 1 1 1 1 1 1 1 1 1 1 1 1 1 1 1 1 1 1 1 1 1 1 1 1 1 1 1 1 1 1 1 1 1 1 1 1 1 1 1 1 1 1 1 1 1 1 1 1 1 1 1 1 1 1 1 1 1 1 1 1 1 1 1 1 1 1 1 1 1 1 1 1 1 1 1 1 1 1 1 1 1 1 1 1 1 1 1 1 1 1 1 1 1 1 1 1 1 1 1 1 1 1 1 1 1 1 1 1 1 1 1 1 1 1 1 1 1 1 1 1 1 1 1 1 1 1 1 1 1 1 1 1 1 1 1 1 1 1 1 1 1 1 1 1 1 1 1 1 1 1 1 1 1 1 1 1 1 1 1 1 1 1 1 1 1 1 1 1 1 1 1 1 1 1 1 1 1 1 1 1 1 1 1 1 1 1 1 1 1 1 1 1 1 1 1 1 1 1 1 1 1 1 1 1 1 1 1 1 1 1 1 1 1 1 1 1 1 1 1 1 1 1 1 1 1 1 1 1 1 1 1 1 1 1 1 1 1 1 1 1 1 1 1 1 1 1 1 1 1 1 1 1 ];
w=[ 5 2 1 5 1 3 3 1 4 2 5 2 5 4 4 3 2 2 2 2 3 5 5 4 2 1 4 5 2 4 1 2 1 1 4 5 4 5 4 5 4 5 3 4 3 3 2 3 2 3 5 3 3 2 2 5 2 2 4 1 5 5 4 2 3 2 4 4 5 2 2 4 2 1 4 3 3 5 3 4 5 4 2 1 3 5 2 5 5 5 3 3 3 4 3 1 4 3 4 1 4 4 1 3 5 5 3 3 1 5 3 1 2 5 4 5 4 3 1 1 2 2 2 2 3 4 4 4 1 5 3 4 5 4 4 5 4 3 2 2 4 1 3 4 1 4 5 3 2 5 3 1 3 3 5 2 3 3 5 1 3 2 2 5 3 3 1 1 5 2 2 4 4 5 2 4 3 4 2 5 1 2 4 3 2 2 2 3 1 3 2 5 1 1 5 3 5 3 2 3 1 1 4 5 4 1 4 1 5 1 3 3 5 4 4 2 5 4 1 2 4 3 2 5 3 4 4 5 1 1 3 1 1 4 3 3 1 5 5 4 1 2 5 1 2 5 4 4 1 3 1 3 2 4 1 4 1 3 4 3 4 4 4 2 2 1 5 3 5 1 ];
f=[ 1 1 1 1 1 1 1 1 1 1 1 1 1 1 1 1 1 1 1 1 1 1 1 1 1 1 1 1 1 1 1 1 1 1 1 1 1 1 1 1 1 1 1 1 1 1 1 1 1 1 1 1 1 1 1 1 1 1 1 1 1 1 1 1 1 1 1 1 1 1 1 1 1 1 1 1 1 1 1 1 1 1 1 1 1 1 1 1 1 1 2 2 2 2 2 2 2 2 2 2 2 2 2 2 2 2 2 2 2 2 2 2 2 2 2 2 2 2 2 2 2 2 2 2 2 2 2 2 2 2 2 2 2 2 2 2 2 2 2 2 2 2 2 2 2 2 2 2 2 2 2 2 2 2 2 2 2 2 2 2 2 2 2 2 2 2 2 2 2 2 2 2 2 2 2 2 2 2 2 2 3 3 3 3 3 3 3 3 3 3 3 3 3 3 3 3 3 3 3 3 3 3 3 3 3 3 3 3 3 3 3 3 3 3 3 3 3 3 3 3 3 3 3 3 3 3 3 3 3 3 3 3 3 3 3 3 3 3 3 3 3 3 3 3 3 3 3 3 3 3 3 3 3 3 3 3 3 3 3 3 3 3 3 3 3 3 3 3 3 3 ];

e1=[ 10 10 10 10 10 10 10 10 10 10 10 10 10 10 10 10 10 10 10 10 10 10 10 10 10 10 10 10 10 10 10 10 10 10 10 10 10 10 10 10 10 10 8 8 8 8 8 8 8 8 8 8 8 8 8 8 8 8 8 8 8 8 8 8 8 8 8 8 8 8 8 8 8 8 8 8 8 8 8 8 8 8 8 8 ];
e2=[ 10 10 10 10 10 10 10 10 10 10 10 10 10 10 10 10 10 10 10 10 10 10 10 10 10 10 10 10 9 9 9 9 9 9 9 9 9 9 9 9 9 9 8 8 8 8 8 8 8 8 8 8 8 8 8 8 8 8 8 8 8 8 8 8 8 8 8 8 8 8 9 9 9 9 9 9 9 9 9 9 9 9 9 9 ];